<number of tasks>
50

<cycle time>
1000

<order strength>
0.199


<task times>
1 130
2 445
3 435
4 299
5 63
6 26
7 173
8 61
9 46
10 135
11 268
12 474
13 172
14 557
15 159
16 481
17 125
18 197
19 319
20 219
21 288
22 135
23 88
24 344
25 222
26 117
27 252
28 506
29 290
30 116
31 86
32 78
33 160
34 177
35 448
36 62
37 339
38 475
39 540
40 145
41 354
42 571
43 51
44 90
45 192
46 321
47 270
48 223
49 213
50 290

<precedence relations>
1,6
1,8
2,7
2,12
3,4
3,5
3,9
3,10
3,11
4,26
5,26
6,14
7,13
7,15
11,16
12,17
12,18
13,26
14,21
15,22
16,23
16,25
17,19
18,20
18,24
19,26
20,26
21,27
22,30
23,28
24,29
24,31
25,32
26,33
26,34
26,35
26,36
26,40
27,38
28,39
29,37
32,41
33,42
34,45
37,43
38,44
42,46
43,47
44,48
44,49
45,50

<end>
